c File: data_files/evolved_graphs/g3655.col
c
c Auto generated graph
c
p edge 100 1466
e 1 2
e 1 3
e 1 5
e 1 9
e 1 19
e 1 23
e 1 28
e 1 35
e 1 36
e 1 40
e 1 45
e 1 46
e 1 59
e 1 60
e 1 61
e 1 62
e 1 64
e 1 65
e 1 67
e 1 70
e 1 71
e 1 72
e 1 75
e 1 76
e 1 78
e 1 79
e 1 80
e 1 81
e 1 82
e 1 86
e 1 87
e 1 94
e 1 96
e 1 98
e 2 4
e 2 5
e 2 11
e 2 15
e 2 16
e 2 24
e 2 26
e 2 35
e 2 38
e 2 57
e 2 68
e 2 69
e 2 70
e 2 71
e 2 75
e 2 76
e 2 77
e 2 83
e 2 85
e 2 86
e 2 99
e 2 100
e 3 4
e 3 8
e 3 14
e 3 15
e 3 17
e 3 19
e 3 25
e 3 32
e 3 37
e 3 42
e 3 43
e 3 44
e 3 57
e 3 59
e 3 60
e 3 62
e 3 64
e 3 66
e 3 69
e 3 71
e 3 77
e 3 82
e 3 85
e 3 88
e 3 89
e 3 93
e 3 100
e 4 7
e 4 8
e 4 9
e 4 12
e 4 16
e 4 18
e 4 25
e 4 26
e 4 31
e 4 40
e 4 41
e 4 56
e 4 57
e 4 58
e 4 59
e 4 61
e 4 64
e 4 65
e 4 67
e 4 71
e 4 73
e 4 79
e 4 80
e 4 81
e 4 85
e 4 87
e 4 90
e 4 91
e 4 93
e 4 96
e 4 99
e 4 100
e 5 10
e 5 13
e 5 17
e 5 25
e 5 43
e 5 45
e 5 50
e 5 56
e 5 57
e 5 58
e 5 59
e 5 60
e 5 61
e 5 62
e 5 65
e 5 67
e 5 68
e 5 69
e 5 82
e 5 85
e 5 91
e 5 92
e 6 9
e 6 13
e 6 14
e 6 18
e 6 24
e 6 25
e 6 27
e 6 45
e 6 46
e 6 56
e 6 59
e 6 60
e 6 61
e 6 62
e 6 63
e 6 64
e 6 65
e 6 67
e 6 68
e 6 71
e 6 72
e 6 74
e 6 80
e 6 84
e 6 87
e 6 92
e 6 94
e 7 10
e 7 11
e 7 15
e 7 16
e 7 17
e 7 24
e 7 29
e 7 31
e 7 33
e 7 34
e 7 36
e 7 39
e 7 56
e 7 58
e 7 59
e 7 60
e 7 61
e 7 63
e 7 64
e 7 65
e 7 67
e 7 69
e 7 71
e 7 72
e 7 73
e 7 75
e 7 76
e 7 84
e 7 86
e 7 87
e 7 91
e 7 92
e 7 94
e 7 95
e 7 98
e 7 100
e 8 10
e 8 14
e 8 16
e 8 18
e 8 20
e 8 27
e 8 35
e 8 42
e 8 44
e 8 58
e 8 59
e 8 60
e 8 61
e 8 62
e 8 64
e 8 66
e 8 67
e 8 68
e 8 69
e 8 74
e 8 75
e 8 79
e 8 81
e 8 87
e 8 88
e 8 89
e 8 91
e 8 92
e 8 95
e 8 99
e 9 15
e 9 23
e 9 24
e 9 25
e 9 26
e 9 27
e 9 29
e 9 30
e 9 32
e 9 39
e 9 42
e 9 51
e 9 56
e 9 57
e 9 60
e 9 61
e 9 62
e 9 65
e 9 66
e 9 68
e 9 70
e 9 71
e 9 72
e 9 73
e 9 75
e 9 77
e 9 84
e 9 89
e 9 95
e 9 97
e 9 99
e 9 100
e 10 16
e 10 23
e 10 32
e 10 33
e 10 34
e 10 39
e 10 42
e 10 43
e 10 45
e 10 57
e 10 59
e 10 60
e 10 61
e 10 65
e 10 66
e 10 67
e 10 68
e 10 71
e 10 72
e 10 76
e 10 78
e 10 81
e 10 92
e 10 93
e 10 94
e 10 95
e 10 96
e 10 100
e 11 22
e 11 26
e 11 28
e 11 33
e 11 36
e 11 39
e 11 43
e 11 45
e 11 59
e 11 63
e 11 65
e 11 66
e 11 68
e 11 70
e 11 71
e 11 74
e 11 78
e 11 79
e 11 82
e 11 85
e 11 86
e 11 89
e 11 95
e 11 96
e 11 99
e 12 13
e 12 14
e 12 18
e 12 24
e 12 34
e 12 39
e 12 41
e 12 45
e 12 53
e 12 57
e 12 58
e 12 59
e 12 60
e 12 61
e 12 62
e 12 63
e 12 64
e 12 66
e 12 68
e 12 70
e 12 71
e 12 72
e 12 74
e 12 76
e 12 82
e 12 83
e 12 86
e 12 88
e 12 90
e 12 93
e 12 97
e 12 98
e 12 100
e 13 14
e 13 16
e 13 19
e 13 22
e 13 23
e 13 24
e 13 30
e 13 57
e 13 59
e 13 60
e 13 62
e 13 63
e 13 64
e 13 65
e 13 66
e 13 68
e 13 69
e 13 71
e 13 73
e 13 79
e 13 81
e 13 82
e 13 84
e 13 85
e 13 87
e 13 90
e 13 92
e 13 93
e 13 94
e 14 15
e 14 18
e 14 19
e 14 21
e 14 22
e 14 25
e 14 26
e 14 27
e 14 36
e 14 37
e 14 42
e 14 49
e 14 56
e 14 57
e 14 59
e 14 60
e 14 61
e 14 64
e 14 65
e 14 67
e 14 68
e 14 70
e 14 77
e 14 78
e 14 81
e 14 87
e 14 89
e 14 91
e 14 92
e 14 98
e 15 17
e 15 19
e 15 20
e 15 25
e 15 28
e 15 33
e 15 40
e 15 55
e 15 56
e 15 57
e 15 59
e 15 61
e 15 63
e 15 65
e 15 67
e 15 69
e 15 70
e 15 71
e 15 74
e 15 78
e 15 80
e 15 81
e 15 95
e 15 96
e 15 98
e 16 19
e 16 25
e 16 30
e 16 34
e 16 43
e 16 57
e 16 58
e 16 60
e 16 64
e 16 65
e 16 67
e 16 70
e 16 71
e 16 75
e 16 77
e 16 79
e 16 83
e 16 87
e 16 88
e 16 91
e 16 96
e 16 97
e 16 99
e 16 100
e 17 21
e 17 24
e 17 27
e 17 30
e 17 45
e 17 53
e 17 58
e 17 59
e 17 66
e 17 67
e 17 69
e 17 70
e 17 72
e 17 75
e 17 80
e 17 82
e 17 83
e 17 85
e 17 97
e 18 21
e 18 24
e 18 26
e 18 34
e 18 43
e 18 56
e 18 59
e 18 63
e 18 64
e 18 70
e 18 71
e 18 75
e 18 76
e 18 79
e 18 82
e 18 85
e 18 86
e 18 89
e 18 92
e 18 95
e 18 98
e 19 37
e 19 38
e 19 42
e 19 43
e 19 44
e 19 53
e 19 58
e 19 63
e 19 64
e 19 65
e 19 69
e 19 78
e 19 79
e 19 84
e 19 86
e 19 89
e 19 91
e 20 21
e 20 22
e 20 25
e 20 31
e 20 36
e 20 46
e 20 52
e 20 61
e 20 62
e 20 64
e 20 65
e 20 73
e 20 75
e 20 79
e 20 85
e 20 88
e 20 94
e 20 95
e 20 97
e 21 68
e 21 70
e 21 71
e 21 74
e 21 75
e 21 76
e 21 79
e 21 81
e 21 90
e 22 23
e 22 25
e 22 27
e 22 30
e 22 32
e 22 34
e 22 39
e 22 44
e 22 59
e 22 62
e 22 68
e 22 71
e 22 75
e 22 78
e 22 83
e 22 85
e 22 88
e 22 89
e 22 95
e 22 96
e 22 97
e 23 27
e 23 29
e 23 32
e 23 40
e 23 42
e 23 51
e 23 57
e 23 60
e 23 65
e 23 68
e 23 73
e 23 79
e 23 89
e 23 96
e 24 28
e 24 38
e 24 46
e 24 58
e 24 61
e 24 78
e 24 83
e 24 92
e 24 100
e 25 28
e 25 29
e 25 34
e 25 44
e 25 45
e 25 52
e 25 66
e 25 67
e 25 69
e 25 77
e 26 27
e 26 35
e 26 40
e 26 48
e 26 56
e 26 58
e 26 59
e 26 61
e 26 62
e 26 63
e 26 66
e 26 68
e 26 69
e 26 71
e 26 72
e 26 74
e 26 78
e 26 79
e 26 81
e 26 82
e 26 85
e 26 86
e 26 87
e 26 90
e 26 91
e 26 93
e 26 94
e 26 95
e 26 97
e 26 98
e 26 99
e 26 100
e 27 29
e 27 37
e 27 47
e 27 56
e 27 58
e 27 60
e 27 63
e 27 64
e 27 65
e 27 69
e 27 70
e 27 71
e 27 72
e 27 77
e 27 78
e 27 79
e 27 80
e 27 81
e 27 82
e 27 84
e 27 88
e 27 89
e 27 90
e 27 91
e 27 92
e 27 93
e 27 94
e 27 95
e 27 97
e 27 100
e 28 30
e 28 37
e 28 38
e 28 56
e 28 63
e 28 64
e 28 65
e 28 67
e 28 68
e 28 69
e 28 71
e 28 74
e 28 75
e 28 78
e 28 80
e 28 81
e 28 82
e 28 83
e 28 84
e 28 85
e 28 86
e 28 89
e 28 90
e 28 92
e 28 93
e 28 94
e 28 96
e 28 97
e 28 99
e 29 34
e 29 36
e 29 41
e 29 58
e 29 59
e 29 61
e 29 63
e 29 66
e 29 67
e 29 69
e 29 73
e 29 76
e 29 79
e 29 84
e 29 85
e 29 86
e 29 87
e 29 88
e 29 90
e 29 94
e 29 95
e 29 100
e 30 31
e 30 39
e 30 41
e 30 44
e 30 52
e 30 53
e 30 56
e 30 57
e 30 59
e 30 61
e 30 62
e 30 63
e 30 64
e 30 65
e 30 66
e 30 67
e 30 69
e 30 70
e 30 71
e 30 74
e 30 77
e 30 78
e 30 83
e 30 85
e 30 86
e 30 88
e 30 91
e 30 92
e 30 94
e 30 96
e 30 100
e 31 33
e 31 35
e 31 43
e 31 44
e 31 57
e 31 59
e 31 61
e 31 62
e 31 63
e 31 65
e 31 66
e 31 67
e 31 68
e 31 71
e 31 72
e 31 73
e 31 77
e 31 80
e 31 81
e 31 83
e 31 84
e 31 85
e 31 87
e 31 90
e 31 91
e 31 93
e 31 98
e 31 100
e 32 33
e 32 34
e 32 37
e 32 40
e 32 41
e 32 42
e 32 43
e 32 55
e 32 56
e 32 57
e 32 60
e 32 62
e 32 65
e 32 66
e 32 67
e 32 69
e 32 70
e 32 71
e 32 72
e 32 73
e 32 75
e 32 79
e 32 81
e 32 82
e 32 83
e 32 85
e 32 86
e 32 87
e 32 88
e 32 89
e 32 90
e 32 91
e 32 92
e 32 93
e 32 95
e 32 96
e 32 97
e 32 99
e 32 100
e 33 34
e 33 37
e 33 38
e 33 39
e 33 41
e 33 42
e 33 43
e 33 48
e 33 50
e 33 54
e 33 56
e 33 57
e 33 58
e 33 59
e 33 60
e 33 61
e 33 62
e 33 66
e 33 67
e 33 68
e 33 69
e 33 70
e 33 73
e 33 74
e 33 75
e 33 76
e 33 77
e 33 80
e 33 82
e 33 83
e 33 84
e 33 85
e 33 88
e 33 89
e 33 91
e 33 92
e 33 93
e 33 94
e 34 35
e 34 37
e 34 38
e 34 40
e 34 47
e 34 55
e 34 56
e 34 57
e 34 58
e 34 59
e 34 62
e 34 64
e 34 67
e 34 70
e 34 71
e 34 75
e 34 76
e 34 77
e 34 79
e 34 80
e 34 81
e 34 83
e 34 86
e 34 87
e 34 89
e 34 91
e 34 94
e 34 96
e 34 97
e 34 99
e 35 40
e 35 58
e 35 60
e 35 61
e 35 62
e 35 64
e 35 65
e 35 66
e 35 67
e 35 68
e 35 72
e 35 73
e 35 75
e 35 77
e 35 78
e 35 81
e 35 82
e 35 86
e 35 87
e 35 90
e 35 91
e 35 93
e 35 95
e 35 98
e 35 100
e 36 45
e 36 52
e 36 57
e 36 59
e 36 61
e 36 62
e 36 64
e 36 65
e 36 66
e 36 68
e 36 69
e 36 70
e 36 71
e 36 72
e 36 73
e 36 77
e 36 79
e 36 80
e 36 82
e 36 84
e 36 87
e 36 89
e 36 91
e 36 92
e 36 97
e 36 98
e 37 39
e 37 40
e 37 43
e 37 44
e 37 56
e 37 57
e 37 58
e 37 60
e 37 61
e 37 62
e 37 63
e 37 64
e 37 66
e 37 67
e 37 71
e 37 72
e 37 74
e 37 75
e 37 76
e 37 77
e 37 78
e 37 79
e 37 80
e 37 81
e 37 82
e 37 83
e 37 89
e 37 91
e 37 92
e 37 95
e 37 96
e 37 97
e 37 100
e 38 55
e 38 56
e 38 57
e 38 59
e 38 63
e 38 65
e 38 67
e 38 68
e 38 69
e 38 70
e 38 74
e 38 75
e 38 76
e 38 78
e 38 79
e 38 83
e 38 84
e 38 85
e 38 86
e 38 88
e 38 91
e 38 93
e 38 94
e 38 99
e 38 100
e 39 40
e 39 41
e 39 43
e 39 51
e 39 55
e 39 57
e 39 58
e 39 60
e 39 61
e 39 66
e 39 67
e 39 68
e 39 73
e 39 74
e 39 75
e 39 78
e 39 79
e 39 82
e 39 85
e 39 86
e 39 87
e 39 89
e 39 90
e 39 92
e 39 93
e 39 95
e 39 97
e 39 99
e 39 100
e 40 41
e 40 42
e 40 43
e 40 45
e 40 57
e 40 58
e 40 59
e 40 60
e 40 61
e 40 63
e 40 66
e 40 67
e 40 68
e 40 70
e 40 71
e 40 72
e 40 73
e 40 75
e 40 76
e 40 77
e 40 79
e 40 80
e 40 81
e 40 83
e 40 86
e 40 88
e 40 89
e 40 94
e 40 96
e 40 100
e 41 53
e 41 56
e 41 59
e 41 62
e 41 63
e 41 66
e 41 67
e 41 69
e 41 70
e 41 71
e 41 72
e 41 73
e 41 74
e 41 76
e 41 77
e 41 78
e 41 80
e 41 83
e 41 84
e 41 85
e 41 86
e 41 87
e 41 88
e 41 89
e 41 90
e 41 92
e 41 93
e 41 94
e 41 95
e 41 96
e 41 97
e 41 98
e 41 99
e 41 100
e 42 56
e 42 57
e 42 59
e 42 60
e 42 61
e 42 62
e 42 64
e 42 65
e 42 66
e 42 70
e 42 71
e 42 72
e 42 73
e 42 74
e 42 75
e 42 76
e 42 77
e 42 78
e 42 79
e 42 80
e 42 82
e 42 83
e 42 85
e 42 86
e 42 87
e 42 88
e 42 90
e 42 91
e 42 93
e 42 94
e 42 98
e 42 100
e 43 45
e 43 48
e 43 55
e 43 58
e 43 59
e 43 63
e 43 64
e 43 65
e 43 66
e 43 68
e 43 69
e 43 70
e 43 71
e 43 72
e 43 73
e 43 74
e 43 75
e 43 77
e 43 78
e 43 79
e 43 80
e 43 81
e 43 83
e 43 84
e 43 85
e 43 87
e 43 90
e 43 91
e 43 92
e 43 94
e 43 95
e 43 98
e 43 99
e 43 100
e 44 45
e 44 54
e 44 56
e 44 58
e 44 61
e 44 68
e 44 69
e 44 71
e 44 72
e 44 74
e 44 76
e 44 77
e 44 79
e 44 81
e 44 82
e 44 83
e 44 84
e 44 85
e 44 86
e 44 91
e 44 93
e 44 94
e 44 98
e 44 99
e 45 57
e 45 58
e 45 61
e 45 62
e 45 64
e 45 67
e 45 68
e 45 73
e 45 76
e 45 77
e 45 78
e 45 79
e 45 80
e 45 84
e 45 85
e 45 87
e 45 88
e 45 91
e 45 92
e 45 93
e 45 96
e 45 97
e 45 98
e 45 99
e 46 50
e 46 51
e 46 61
e 46 68
e 46 69
e 46 71
e 46 77
e 46 81
e 46 86
e 46 92
e 47 48
e 47 54
e 47 60
e 47 76
e 47 81
e 48 49
e 48 50
e 48 53
e 48 65
e 48 67
e 48 74
e 48 81
e 48 97
e 49 53
e 49 56
e 49 57
e 49 60
e 49 63
e 49 67
e 49 68
e 49 69
e 49 74
e 49 82
e 49 98
e 50 63
e 50 68
e 50 71
e 50 75
e 50 77
e 50 81
e 50 88
e 50 96
e 50 99
e 51 52
e 51 62
e 51 68
e 51 69
e 51 70
e 51 71
e 51 72
e 51 78
e 51 85
e 52 53
e 52 54
e 52 56
e 52 65
e 52 67
e 52 71
e 52 72
e 52 76
e 52 77
e 52 80
e 52 88
e 53 60
e 53 62
e 53 75
e 53 87
e 53 94
e 54 57
e 54 61
e 54 63
e 54 65
e 54 66
e 54 70
e 54 71
e 54 90
e 55 57
e 55 58
e 55 67
e 55 71
e 55 74
e 55 75
e 55 82
e 55 92
e 56 59
e 56 60
e 56 64
e 56 75
e 56 90
e 56 96
e 57 58
e 57 62
e 57 63
e 57 67
e 57 68
e 57 71
e 57 73
e 57 84
e 57 95
e 57 97
e 57 100
e 58 61
e 58 70
e 58 71
e 58 74
e 58 76
e 58 83
e 59 60
e 59 64
e 59 65
e 59 67
e 59 69
e 59 73
e 59 75
e 59 77
e 59 98
e 60 61
e 60 64
e 60 65
e 60 69
e 60 75
e 60 77
e 60 81
e 60 83
e 60 85
e 60 97
e 60 99
e 61 68
e 61 73
e 61 74
e 61 75
e 61 76
e 61 80
e 61 91
e 61 96
e 62 63
e 62 68
e 62 71
e 62 74
e 62 76
e 62 77
e 62 84
e 62 86
e 62 94
e 63 66
e 63 71
e 63 78
e 63 91
e 63 94
e 64 67
e 64 72
e 64 73
e 64 74
e 64 75
e 64 76
e 64 77
e 64 93
e 65 77
e 65 80
e 65 88
e 66 67
e 66 69
e 66 71
e 66 72
e 66 91
e 66 99
e 67 68
e 67 72
e 67 76
e 67 77
e 67 92
e 67 95
e 68 70
e 68 74
e 68 78
e 68 92
e 68 95
e 68 97
e 69 92
e 70 72
e 70 73
e 70 79
e 70 85
e 70 91
e 70 97
e 71 75
e 71 94
e 71 95
e 71 97
e 71 99
e 72 73
e 72 75
e 72 76
e 72 77
e 72 81
e 72 85
e 73 74
e 73 77
e 73 82
e 73 94
e 73 96
e 73 98
e 74 76
e 74 81
e 74 97
e 75 78
e 75 95
e 76 77
e 76 93
e 78 81
e 78 84
e 78 92
e 78 93
e 78 99
e 79 80
e 79 93
e 79 97
e 80 85
e 80 87
e 81 86
e 81 88
e 81 90
e 81 93
e 81 95
e 81 96
e 82 83
e 82 84
e 82 85
e 82 87
e 82 88
e 82 91
e 82 92
e 82 98
e 83 88
e 83 93
e 83 98
e 83 99
e 84 88
e 84 89
e 84 91
e 84 94
e 84 99
e 85 87
e 85 88
e 85 89
e 85 90
e 85 98
e 85 100
e 86 87
e 86 90
e 86 93
e 86 96
e 86 97
e 87 89
e 87 91
e 87 95
e 88 92
e 88 93
e 88 96
e 89 97
e 89 98
e 90 94
e 90 96
e 90 98
e 91 94
e 91 97
e 92 95
e 92 96
e 92 100
e 93 99
e 93 100
e 94 97
e 95 96
e 95 97
e 98 99
e 98 100
